# GJ thermostat

units   	metal
atom_style      full

boundary 	p p p
read_data argon.lmp
include ff-argon.lmp

velocity all create 10 2357 mom yes dist gaussian
neighbor 1 bin

timestep 0.1

compute myKE all ke
compute myPE all pe

fix lang all gjf 10 10 1 26488 vel vfull method 1

run 5000

fix energies all ave/time 1 20000 20000 c_myKE c_myPE #file ave.out

thermo 2000
run 35000