# GJ thermostat

units   	metal
atom_style      full

boundary 	p p p
read_data argon.lmp

include ff-argon.lmp

velocity all create 10 2357 mom yes dist gaussian

neighbor 1 bin

timestep 0.1

fix lang all langevin/gjf 10 10 1 26488 vel vfull method 4

thermo 200
run 5000


